p cnf 10 50
-2 -10 -1 0
-4 -2 -7 0
-9 -3 1 0
3 7 -9 0
-1 2 3 0
5 -8 -10 0
-10 -5 -1 0
-8 -6 -5 0
5 6 7 0
-6 4 -7 0
-7 6 4 0
-6 -1 8 0
3 7 8 0
-9 -2 -3 0
10 -4 1 0
-8 -2 1 0
8 -6 -5 0
-8 -2 -4 0
10 -8 6 0
6 -10 -8 0
4 -10 8 0
1 -4 5 0
-4 9 -8 0
10 2 7 0
6 7 -2 0
1 3 8 0
-7 -2 3 0
2 7 4 0
-7 5 9 0
10 -2 -4 0
-1 3 -2 0
-8 4 -2 0
-8 5 -6 0
-2 -10 -9 0
-10 -8 6 0
-6 -10 1 0
3 -8 9 0
-4 8 -2 0
2 -7 -5 0
-5 6 -10 0
6 3 2 0
7 10 4 0
-2 -9 -7 0
7 9 -3 0
5 4 -2 0
10 1 -6 0
-6 3 -7 0
-1 -7 -8 0
10 -3 4 0
3 4 -6 0
